solution status: time limit reached
objective value:                     49.9999999091184
shell_j_$_100                                       1 	(obj:0)
shell_j_$_127                                       1 	(obj:0)
shell_i_$_128                                       1 	(obj:0)
shell_j_$_102                                       1 	(obj:0)
shell_i_$_124                                       1 	(obj:0)
shell_i_$_135                                       1 	(obj:0)
shell_j_$_104                                       1 	(obj:0)
shell_j_$_116                                       1 	(obj:0)
shell_j_$_22                                        1 	(obj:0)
shell_j_$_77                                        1 	(obj:0)
shell_j_$_26                                        1 	(obj:0)
shell_j_$_125                                       1 	(obj:0)
shell_j_$_18                                        1 	(obj:0)
shell_j_$_112                                       1 	(obj:0)
shell_j_$_120                                       1 	(obj:0)
shell_j_$_7                                         1 	(obj:0)
shell_j_$_82                                        1 	(obj:0)
shell_j_$_118                                       1 	(obj:0)
shell_j_$_9                                         1 	(obj:0)
shell_i_$_8                                         1 	(obj:0)
shell_i_$_44                                        1 	(obj:0)
shell_i_$_143                                       1 	(obj:0)
shell_j_$_143                                       1 	(obj:0)
shell_i_$_96__8                                     1 	(obj:0)
shell_i_$_139                                       1 	(obj:0)
shell_j_$_2                                         1 	(obj:0)
shell_j_$_123__8                                    1 	(obj:0)
shell_i_$_126                                       1 	(obj:0)
shell_i_$_92                                        1 	(obj:0)
shell_j_$_113                                       1 	(obj:0)
shell_j_$_17                                        1 	(obj:0)
shell_j_$_4                                         1 	(obj:0)
shell_j_$_5                                         1 	(obj:0)
shell_j_$_47                                        1 	(obj:0)
shell_j_$_19                                        1 	(obj:0)
shell_j_$_65                                        1 	(obj:0)
shell_i_$_129                                       1 	(obj:0)
shell_i_$_114                                       1 	(obj:0)
shell_j_$_12                                        1 	(obj:0)
shell_j_$_16                                        1 	(obj:0)
shell_i_$_136                                       1 	(obj:0)
shell_j_$_88                                        1 	(obj:0)
shell_j_$_140                                       1 	(obj:0)
shell_i_$_148__8                                    1 	(obj:0)
shell_j_$_64                                        1 	(obj:0)
shell_j_$_89                                        1 	(obj:0)
shell_j_$_3                                         1 	(obj:0)
shell_j_$_147__8                                    1 	(obj:0)
shell_j_$_98__8                                     1 	(obj:0)
shell_j_$_93                                        1 	(obj:0)
shell_i_$_48                                        1 	(obj:0)
shell_j_$_101                                       1 	(obj:0)
shell_j_$_117                                       1 	(obj:0)
shell_i_$_122__8                                    1 	(obj:0)
shell_j_$_86                                        1 	(obj:0)
shell_j_$_84                                        1 	(obj:0)
shell_j_$_90                                        1 	(obj:0)
$_96__8_z                                          18 	(obj:0)
$_102_z                                            16 	(obj:0)
$_77_x                                            -10 	(obj:0)
$_139_x                                           -10 	(obj:0)
$_139_y                                             8 	(obj:0)
$_139_z                                            19 	(obj:0)
$_77_y                                             10 	(obj:0)
$_77_z                                             14 	(obj:0)
$_2_x                                              -4 	(obj:0)
$_2_y                                              10 	(obj:0)
$_2_z                                              24 	(obj:0)
$_127_y                                            10 	(obj:0)
$_127_z                                            20 	(obj:0)
$_123__8_x                                         -4 	(obj:0)
$_123__8_y                                         10 	(obj:0)
$_123__8_z                                         21 	(obj:0)
$_26_x                                            -10 	(obj:0)
$_26_y                                             10 	(obj:0)
$_126_x                                           -10 	(obj:0)
$_126_y                                             6 	(obj:0)
$_126_z                                            20 	(obj:0)
$_26_z                                             15 	(obj:0)
$_124_x                                           -10 	(obj:0)
$_92_x                                            -10 	(obj:0)
$_92_y                                              7 	(obj:0)
$_92_z                                             14 	(obj:0)
$_124_y                                             8 	(obj:0)
$_125_x                                            -9 	(obj:0)
$_113_x                                            -9 	(obj:0)
$_113_y                                            10 	(obj:0)
$_113_z                                            17 	(obj:0)
$_125_y                                            10 	(obj:0)
$_125_z                                            16 	(obj:0)
$_17_x                                             -6 	(obj:0)
$_17_y                                             10 	(obj:0)
$_17_z                               24.0000000382704 	(obj:0)
$_124_z                                            20 	(obj:0)
$_100_z                                            20 	(obj:0)
$_4_x                                             -10 	(obj:0)
$_4_y                                              10 	(obj:0)
$_4_z                                              24 	(obj:0)
$_18_x                              -4.99999999582989 	(obj:0)
$_18_y                                             10 	(obj:0)
$_5_x                                              -4 	(obj:0)
$_5_y                                              10 	(obj:0)
$_5_z                                              20 	(obj:0)
$_18_z                                             24 	(obj:0)
$_100_x                                            -5 	(obj:0)
$_47_x                                             -4 	(obj:0)
$_47_y                                             10 	(obj:0)
$_47_z                                             16 	(obj:0)
$_135_x                                           -10 	(obj:0)
$_112_x                                            -8 	(obj:0)
$_19_x                                             -4 	(obj:0)
$_19_y                                             10 	(obj:0)
$_19_z                               23.0000000035565 	(obj:0)
$_112_y                                            10 	(obj:0)
$_112_z                                            17 	(obj:0)
$_65_x                                             -9 	(obj:0)
$_65_y                                             10 	(obj:0)
$_65_z                                             15 	(obj:0)
$_135_y                              7.00000000274189 	(obj:0)
$_135_z                                            18 	(obj:0)
$_129_x                                           -10 	(obj:0)
$_129_y                                             7 	(obj:0)
$_129_z                                            17 	(obj:0)
$_120_x                                            -6 	(obj:0)
$_120_y                                            10 	(obj:0)
$_114_x                                           -10 	(obj:0)
$_114_y                                             6 	(obj:0)
$_114_z                                            18 	(obj:0)
$_120_z                                            21 	(obj:0)
$_128_x                                           -10 	(obj:0)
$_12_x                              -7.00000002307785 	(obj:0)
$_12_y                                             10 	(obj:0)
$_12_z                                             21 	(obj:0)
$_128_y                                             6 	(obj:0)
$_7_x                                              -6 	(obj:0)
$_16_x                                             -7 	(obj:0)
$_16_y                                             10 	(obj:0)
$_16_z                                             24 	(obj:0)
$_7_y                                              10 	(obj:0)
$_7_z                                              20 	(obj:0)
$_136_x                                           -10 	(obj:0)
$_136_y                               7.9999999985887 	(obj:0)
$_136_z                                            18 	(obj:0)
$_104_x                                            -6 	(obj:0)
$_104_y                                            10 	(obj:0)
$_88_x                                             -6 	(obj:0)
$_88_y                                             10 	(obj:0)
$_88_z                                             16 	(obj:0)
$_82_x                                            -10 	(obj:0)
$_82_y                                             10 	(obj:0)
$_140_x                                            -8 	(obj:0)
$_140_y                                            10 	(obj:0)
$_140_z                                            19 	(obj:0)
$_82_z                                             13 	(obj:0)
$_104_z                                            14 	(obj:0)
$_148__8_x                                        -10 	(obj:0)
$_148__8_y                                          4 	(obj:0)
$_148__8_z                           23.0000000269088 	(obj:0)
$_128_z                              16.9999999772732 	(obj:0)
$_118_x                                            -8 	(obj:0)
$_64_x                                             -7 	(obj:0)
$_64_y                                             10 	(obj:0)
$_64_z                                             17 	(obj:0)
$_118_y                                            10 	(obj:0)
$_118_z                                            18 	(obj:0)
$_89_x                                             -7 	(obj:0)
$_89_y                                             10 	(obj:0)
$_89_z                                             18 	(obj:0)
$_100_y                                            10 	(obj:0)
$_116_x                             -6.00000000425286 	(obj:0)
$_3_x                                              -8 	(obj:0)
$_3_y                                              10 	(obj:0)
$_3_z                                              24 	(obj:0)
$_9_x                                             -10 	(obj:0)
$_9_y                                              10 	(obj:0)
$_147__8_x                                         -6 	(obj:0)
$_147__8_y                                         10 	(obj:0)
$_147__8_z                           23.0000000097364 	(obj:0)
$_9_z                                              12 	(obj:0)
$_116_y                                            10 	(obj:0)
$_98__8_x                          -0.999999996365481 	(obj:0)
$_98__8_y                                          10 	(obj:0)
$_98__8_z                                          20 	(obj:0)
$_116_z                                            17 	(obj:0)
$_8_x                                             -10 	(obj:0)
$_93_x                                             -4 	(obj:0)
$_93_y                                             10 	(obj:0)
$_93_z                                             19 	(obj:0)
$_8_y                                               8 	(obj:0)
$_8_z                                              22 	(obj:0)
$_48_x                                            -10 	(obj:0)
$_48_y                                             10 	(obj:0)
$_48_z                                             21 	(obj:0)
$_127_x                                            -7 	(obj:0)
$_102_x                                            -8 	(obj:0)
$_101_x                                            -8 	(obj:0)
$_101_y                                            10 	(obj:0)
$_101_z                                            20 	(obj:0)
$_44_x                                            -10 	(obj:0)
$_44_y                                              5 	(obj:0)
$_117_x                                            -6 	(obj:0)
$_117_y                                            10 	(obj:0)
$_117_z                                            18 	(obj:0)
$_44_z                                             18 	(obj:0)
$_22_x                                             -4 	(obj:0)
$_122__8_x                                        -10 	(obj:0)
$_122__8_y                                          7 	(obj:0)
$_122__8_z                                         24 	(obj:0)
$_22_y                                             10 	(obj:0)
$_143_x                                           -10 	(obj:0)
$_86_x                                             -8 	(obj:0)
$_86_y                                             10 	(obj:0)
$_86_z                                             14 	(obj:0)
$_143_y                                            10 	(obj:0)
$_143_z                                            23 	(obj:0)
$_84_x                                             -7 	(obj:0)
$_84_y                                             10 	(obj:0)
$_84_z                                             16 	(obj:0)
$_22_z                                             18 	(obj:0)
$_102_y                                            10 	(obj:0)
$_90_x                                             -9 	(obj:0)
$_90_y                                             10 	(obj:0)
$_90_z                                             18 	(obj:0)
$_96__8_x                                         -10 	(obj:0)
$_96__8_y                                           4 	(obj:0)
x281                                                1 	(obj:1)
x291                                                2 	(obj:1)
x294                                                2 	(obj:1)
x296                                                3 	(obj:1)
x305                             -3.86070509884101e-09 	(obj:1)
x308                                 1.99999998709975 	(obj:1)
x309                                                1 	(obj:1)
x310                                                2 	(obj:1)
x311                                                2 	(obj:1)
x326                             -8.1869715272885e-09 	(obj:1)
x341                                                2 	(obj:1)
x356                                                2 	(obj:1)
x361                                                1 	(obj:1)
x364                                                1 	(obj:1)
x369                                                1 	(obj:1)
x383                                                2 	(obj:1)
x386                                                2 	(obj:1)
x400                             -8.61703799125657e-09 	(obj:1)
x404                                 1.99999999155611 	(obj:1)
x412                                0.999999991819927 	(obj:1)
x429                             -5.48227251264573e-09 	(obj:1)
x432                                 1.99999998994131 	(obj:1)
x437                                                2 	(obj:1)
x445                                                1 	(obj:1)
x447                                                2 	(obj:1)
x448                                 0.99999999142343 	(obj:1)
x449                                                1 	(obj:1)
x452                                                1 	(obj:1)
x453                                                4 	(obj:1)
x454                                                1 	(obj:1)
x457                                                3 	(obj:1)
x466                                0.999999991504503 	(obj:1)
x467                                0.999999991920359 	(obj:1)
x491                                                1 	(obj:1)
